assignment_2/output/hhi_Euler/lambda70.0/a280_lambda70.0.tour
NAME : a280
COMMENT : Tour length 5001
TYPE : TOUR
DIMENSION : 280
TOUR_SECTION
1
2
242
241
245
251
209
208
206
205
204
203
202
201
197
193
186
187
164
171
170
102
92
93
169
101
103
91
80
79
77
90
81
76
74
73
72
71
75
89
83
84
85
65
64
58
57
56
55
54
53
52
51
66
67
69
70
68
82
88
87
86
63
59
44
45
46
47
48
49
50
62
60
43
42
41
40
39
38
37
35
36
61
116
118
117
113
115
172
165
166
167
168
100
99
98
94
78
97
96
95
188
198
196
194
192
191
190
189
195
200
199
207
212
213
216
217
220
221
215
218
219
222
210
230
211
240
239
238
237
236
235
246
231
232
233
234
229
228
227
226
225
224
223
214
243
244
247
250
252
253
255
254
264
267
266
265
257
262
258
259
260
275
9
8
7
10
274
11
276
6
5
277
4
3
280
261
273
12
272
15
14
13
271
16
17
278
279
263
269
135
134
133
19
26
22
18
23
24
25
132
20
27
28
21
128
127
126
125
30
33
124
29
32
31
34
131
130
129
154
155
153
156
152
268
136
137
149
138
139
148
147
146
145
141
142
143
144
140
150
178
177
159
160
174
173
106
105
104
109
108
112
110
111
114
151
157
119
120
121
122
123
158
176
175
107
161
162
163
179
180
182
183
184
185
181
270
256
249
248
1
-1
EOF